%chk=CH4.chk
# hf/3-21g geom=connectivity

Title Card Required

0 1
 C                 -1.58554573    0.81120943    0.00000000
 H                 -1.22889131   -0.19760058    0.00000000
 H                 -1.22887289    1.31560762    0.87365150
 H                 -1.22887289    1.31560762   -0.87365150
 H                 -2.65554573    0.81122261    0.00000000

 1 2 1.0 3 1.0 4 1.0 5 1.0
 2
 3
 4
 5

